Route #1: 1 25 36 3 38 10 22 19 4 1
Route #2: 1 26 27 20 28 39 40 1
Route #3: 1 5 6 16 32 23 8 31 14 1
Route #4: 1 34 12 35 7 29 18 15 2 1
Route #5: 1 30 33 13 24 11 41 1
Route #6: 1 17 21 37 9 1
cost 876.4626799126556
